row=9;
column=9;

Board=[|0,0,0,0,0,0,0,0,2|0,0,0,2,0,5,0,8,7|0,3,2,1,0,6,0,4,0|1,0,0,8,0,0,0,0,4|9,0,4,0,0,3,0,1,0|0,0,0,0,0,0,5,9,0|0,0,0,3,0,1,0,6,9|3,0,9,0,5,2,8,0,1|0,1,0,0,0,0,4,5,3|];
OE=[|0,1,0,0,1,1,1,1,0|0,1,1,0,1,1,0,0,1|1,1,0,1,0,0,1,0,1|1,1,1,0,0,1,1,0,0|1,0,0,1,0,1,1,1,0|0,0,1,1,1,0,1,1,0|1,0,1,1,0,1,0,0,1|1,0,1,0,1,0,0,1,1|0,1,0,1,1,0,0,1,1|];
